words_hard_train/4931.qaiger
aag 127 24 0 1 103
2
4
8
10
22
24
38
40
44
84
86
100
118
120
134
152
154
168
186
188
202
218
222
224
255
6 2 4
12 9 11
14 8 10
16 13 15
18 6 16
20 19 15
26 23 25
28 22 24
30 27 29
32 20 31
34 21 30
36 33 35
42 39 41
46 43 44
48 42 45
50 47 49
52 37 50
54 3 5
56 55 38
58 56 7
60 58 41
62 61 19
64 7 17
66 62 65
68 38 40
70 69 43
72 59 71
74 67 73
76 53 75
78 36 51
80 77 79
82 35 29
88 85 87
90 84 86
92 89 91
94 82 93
96 83 92
98 95 97
102 49 100
104 48 101
106 103 105
108 99 106
110 81 109
112 98 107
114 111 113
116 97 91
122 119 121
124 118 120
126 123 125
128 116 127
130 117 126
132 129 131
136 105 134
138 104 135
140 137 139
142 133 140
144 115 143
146 132 141
148 145 147
150 131 125
156 153 155
158 152 154
160 157 159
162 150 161
164 151 160
166 163 165
170 139 168
172 138 169
174 171 173
176 167 174
178 149 177
180 166 175
182 179 181
184 165 159
190 187 189
192 186 188
194 191 193
196 184 195
198 185 194
200 197 199
204 173 202
206 172 203
208 205 207
210 201 208
212 183 211
214 200 209
216 213 215
220 216 218
226 222 225
228 223 224
230 227 229
232 199 193
234 230 232
236 231 233
238 235 237
240 238 206
242 221 241
244 217 219
246 239 207
248 245 247
250 242 249
252 220 240
254 251 253
i0 2 y2[0]
i1 2 y1[0]
i2 2 y2[1]
i3 2 y1[1]
i4 2 y2[2]
i5 2 y1[2]
i6 1 x2[0]
i7 1 x2[1]
i8 1 x2[2]
i9 2 y2[3]
i10 2 y1[3]
i11 1 x2[3]
i12 2 y2[4]
i13 2 y1[4]
i14 1 x2[4]
i15 2 y2[5]
i16 2 y1[5]
i17 1 x2[5]
i18 2 y2[6]
i19 2 y1[6]
i20 1 x2[6]
i21 1 x2[7]
i22 2 y2[7]
i23 2 y1[7]
o0 bv[0]
c
simplified
  >
    1 x2
    xor
      add
        2 y2
        2 y1
      invert
        1
