words_hard_train/4931.qaiger.qdimacs
p cnf 127 310
a 67 101 109 50 19 20 84 22 0
e 1 2 3 4 5 6 7 8 9 10 11 12 13 14 15 16 17 18 21 23 24 25 26 27 28 29 30 31 32 33 34 35 36 37 38 39 40 41 42 43 44 45 46 47 48 49 51 52 53 54 55 56 57 58 59 60 61 62 63 64 65 66 68 69 70 71 72 73 74 75 76 77 78 79 80 81 82 83 85 86 87 88 89 90 91 92 93 94 95 96 97 98 99 100 102 103 104 105 106 107 108 110 111 112 113 114 115 116 117 118 119 120 121 122 123 124 125 126 127 0
-1 -2 3 0
1 -3 0
2 -3 0
4 5 6 0
-4 -6 0
-5 -6 0
-4 -5 7 0
4 -7 0
5 -7 0
6 7 8 0
-6 -8 0
-7 -8 0
-3 -8 9 0
3 -9 0
8 -9 0
9 7 10 0
-9 -10 0
-7 -10 0
11 12 13 0
-11 -13 0
-12 -13 0
-11 -12 14 0
11 -14 0
12 -14 0
13 14 15 0
-13 -15 0
-14 -15 0
-10 15 16 0
10 -16 0
-15 -16 0
10 -15 17 0
-10 -17 0
15 -17 0
16 17 18 0
-16 -18 0
-17 -18 0
19 20 21 0
-19 -21 0
-20 -21 0
21 -22 23 0
-21 -23 0
22 -23 0
-21 22 24 0
21 -24 0
-22 -24 0
23 24 25 0
-23 -25 0
-24 -25 0
18 -25 26 0
-18 -26 0
25 -26 0
1 2 27 0
-1 -27 0
-2 -27 0
27 -19 28 0
-27 -28 0
19 -28 0
-28 3 29 0
28 -29 0
-3 -29 0
-29 20 30 0
29 -30 0
-20 -30 0
30 9 31 0
-30 -31 0
-9 -31 0
3 8 32 0
-3 -32 0
-8 -32 0
-31 32 33 0
31 -33 0
-32 -33 0
-19 -20 34 0
19 -34 0
20 -34 0
34 21 35 0
-34 -35 0
-21 -35 0
29 35 36 0
-29 -36 0
-35 -36 0
33 36 37 0
-33 -37 0
-36 -37 0
26 37 38 0
-26 -38 0
-37 -38 0
-18 25 39 0
18 -39 0
-25 -39 0
38 39 40 0
-38 -40 0
-39 -40 0
17 14 41 0
-17 -41 0
-14 -41 0
42 43 44 0
-42 -44 0
-43 -44 0
-42 -43 45 0
42 -45 0
43 -45 0
44 45 46 0
-44 -46 0
-45 -46 0
-41 46 47 0
41 -47 0
-46 -47 0
41 -46 48 0
-41 -48 0
46 -48 0
47 48 49 0
-47 -49 0
-48 -49 0
24 -50 51 0
-24 -51 0
50 -51 0
-24 50 52 0
24 -52 0
-50 -52 0
51 52 53 0
-51 -53 0
-52 -53 0
49 -53 54 0
-49 -54 0
53 -54 0
40 54 55 0
-40 -55 0
-54 -55 0
-49 53 56 0
49 -56 0
-53 -56 0
55 56 57 0
-55 -57 0
-56 -57 0
48 45 58 0
-48 -58 0
-45 -58 0
59 60 61 0
-59 -61 0
-60 -61 0
-59 -60 62 0
59 -62 0
60 -62 0
61 62 63 0
-61 -63 0
-62 -63 0
-58 63 64 0
58 -64 0
-63 -64 0
58 -63 65 0
-58 -65 0
63 -65 0
64 65 66 0
-64 -66 0
-65 -66 0
52 -67 68 0
-52 -68 0
67 -68 0
-52 67 69 0
52 -69 0
-67 -69 0
68 69 70 0
-68 -70 0
-69 -70 0
66 -70 71 0
-66 -71 0
70 -71 0
57 71 72 0
-57 -72 0
-71 -72 0
-66 70 73 0
66 -73 0
-70 -73 0
72 73 74 0
-72 -74 0
-73 -74 0
65 62 75 0
-65 -75 0
-62 -75 0
76 77 78 0
-76 -78 0
-77 -78 0
-76 -77 79 0
76 -79 0
77 -79 0
78 79 80 0
-78 -80 0
-79 -80 0
-75 80 81 0
75 -81 0
-80 -81 0
75 -80 82 0
-75 -82 0
80 -82 0
81 82 83 0
-81 -83 0
-82 -83 0
69 -84 85 0
-69 -85 0
84 -85 0
-69 84 86 0
69 -86 0
-84 -86 0
85 86 87 0
-85 -87 0
-86 -87 0
83 -87 88 0
-83 -88 0
87 -88 0
74 88 89 0
-74 -89 0
-88 -89 0
-83 87 90 0
83 -90 0
-87 -90 0
89 90 91 0
-89 -91 0
-90 -91 0
82 79 92 0
-82 -92 0
-79 -92 0
93 94 95 0
-93 -95 0
-94 -95 0
-93 -94 96 0
93 -96 0
94 -96 0
95 96 97 0
-95 -97 0
-96 -97 0
-92 97 98 0
92 -98 0
-97 -98 0
92 -97 99 0
-92 -99 0
97 -99 0
98 99 100 0
-98 -100 0
-99 -100 0
86 -101 102 0
-86 -102 0
101 -102 0
-86 101 103 0
86 -103 0
-101 -103 0
102 103 104 0
-102 -104 0
-103 -104 0
100 -104 105 0
-100 -105 0
104 -105 0
91 105 106 0
-91 -106 0
-105 -106 0
-100 104 107 0
100 -107 0
-104 -107 0
106 107 108 0
-106 -108 0
-107 -108 0
-108 -109 110 0
108 -110 0
109 -110 0
-111 112 113 0
111 -113 0
-112 -113 0
111 -112 114 0
-111 -114 0
112 -114 0
113 114 115 0
-113 -115 0
-114 -115 0
99 96 116 0
-99 -116 0
-96 -116 0
-115 -116 117 0
115 -117 0
116 -117 0
115 116 118 0
-115 -118 0
-116 -118 0
117 118 119 0
-117 -119 0
-118 -119 0
-119 -103 120 0
119 -120 0
103 -120 0
110 120 121 0
-110 -121 0
-120 -121 0
108 109 122 0
-108 -122 0
-109 -122 0
119 103 123 0
-119 -123 0
-103 -123 0
122 123 124 0
-122 -124 0
-123 -124 0
-121 124 125 0
121 -125 0
-124 -125 0
-110 -120 126 0
110 -126 0
120 -126 0
125 126 127 0
-125 -127 0
-126 -127 0
-127 0
